50
15107

718 372
635 174
176 417
727 648
351 603
222 178
575 279
229 602
612 454
483 319
740 213
542 224
709 635
672 435
901 466
153 896
60 272
903 576
829 917
329 478
403 943
542 27
36 997
656 977
673 413
477 548
964 481
896 519
239 142
273 231
19 826
22 58
388 521
456 120
940 164
703 734
596 906
192 12
377 74
232 177
339 163
595 453
64 874
3 442
629 183
330 688
241 572
919 919
946 10
24 620
